p cnf 130 3
-1415 -1416 -1418 -1419 -1423 -1442 -1455 -1457 -1458 -1459 -1480 -1481 -1487 -1489 -1493 -1498 -1499 -1502 -1507 -1512 -1514 -1515 -1520 -1521 -1522 -1528 -1531 -1532 -1537 -1552 -1557 -1559 -1566 -1570 -1577 -1588 -1594 -1616 -1622 -1626 -1643 -1646 -1654 -1658 -1665 -1677 -1679 -1682 -1685 -1686 -1688 -1690 -1691 -1697 -1698 -1700 -1707 -1711 -1712 -1716 -1726 -1728 -1735 -1736 -1740 -1743 -1745 -1747 -1749 -1750 -1753 -1754 -1756 -1759 -1764 -1765 -1767 -1775 -1778 -1781 -1782 -1784 -1786 -1787 -1790 -1805 -1806 -1808 -1809 -1810 -1904 -1909 -1911 -1927 -2531 -2533 -2535 -2537 -2543 -2547 -2550 -2557 -2558 -2560 -2561 -3058 -3069 -3077 -3080 -3081 -3083 -3088 -3089 -3091 -3762 -3763 -3764 -3769 -3772 -3777 -3779 -3780 -4156 -4165 -4175 0
-1415 -1416 -1418 -1419 -1423 -1442 -1455 -1457 -1458 -1459 -1480 -1481 -1487 -1489 -1493 -1498 -1499 -1502 -1507 -1512 -1514 -1515 -1520 -1521 -1522 -1528 -1531 -1532 -1537 -1552 -1557 -1559 -1566 -1570 -1577 -1588 -1594 -1616 -1622 -1626 -1643 -1646 -1654 -1658 -1665 -1677 -1679 -1682 -1685 -1686 -1688 -1690 -1691 -1697 -1698 -1700 -1707 -1711 -1712 -1716 -1726 -1728 -1729 -1730 -1733 -1735 -1736 -1740 -1743 -1745 -1747 -1749 -1750 -1753 -1754 -1756 -1759 -1764 -1765 -1767 -1775 -1778 -1781 -1782 -1784 -1786 -1787 -1790 -1805 -1806 -1808 -1809 -1810 -1904 -1909 -1911 -1927 -2531 -2533 -2535 -2537 -2543 -2547 -2550 -2557 -2558 -2560 -2561 -3058 -3069 -3077 -3080 -3081 -3083 -3088 -3091 -3762 -3763 -3764 -3769 -3772 -3777 -3779 -3780 -4156 -4165 -4175 0
-1415 -1416 -1418 -1419 -1423 -1442 -1455 -1457 -1458 -1459 -1480 -1481 -1487 -1489 -1493 -1498 -1499 -1502 -1507 -1512 -1514 -1515 -1520 -1521 -1522 -1528 -1531 -1532 -1537 -1552 -1557 -1559 -1566 -1570 -1577 -1588 -1594 -1616 -1622 -1626 -1643 -1646 -1654 -1658 -1665 -1677 -1679 -1682 -1685 -1686 -1688 -1690 -1691 -1692 -1695 -1697 -1698 -1700 -1707 -1711 -1712 -1716 -1726 -1728 -1729 -1730 -1733 -1735 -1736 -1740 -1743 -1745 -1747 -1749 -1750 -1753 -1754 -1756 -1759 -1764 -1765 -1767 -1775 -1778 -1781 -1782 -1784 -1786 -1787 -1790 -1805 -1806 -1808 -1809 -1810 -1904 -1909 -1911 -1927 -2531 -2533 -2535 -2537 -2543 -2547 -2550 -2557 -2558 -2560 -2561 -3058 -3069 -3077 -3080 -3081 -3083 -3091 -3762 -3763 -3764 -3769 -3772 -3777 -3779 -3780 -4156 -4165 -4175 0
